70
1 0 6
3 0 2
3 1 5
3 2 6
4 0 2
4 2 2
5 0 4
5 1 5
5 2 8
6 1 9
6 2 6
6 3 8
6 4 5
6 5 1
7 2 9
7 3 1
7 5 3
7 6 3
8 0 5
8 1 3
8 3 7
8 6 5
8 7 4
9 0 1
9 3 1
9 5 5
9 6 9
10 0 7
10 1 5
10 4 9
10 6 9
10 8 6
11 0 3
11 1 9
11 2 5
11 3 2
11 4 7
11 5 7
11 7 9
11 10 9
12 1 6
12 2 8
12 4 3
12 5 5
12 7 5
12 9 9
12 10 6
12 11 3
13 0 6
13 2 4
13 5 4
13 10 8
13 11 3
14 3 9
14 4 6
14 5 8
14 8 8
14 10 6
14 11 3
14 12 5
15 0 2
15 4 3
15 5 1
15 8 8
15 10 8
15 12 1
15 14 4
16 0 8
16 1 1
16 2 6
16 3 6
16 5 2
16 7 9
16 8 8
16 9 1
16 11 2
16 13 1
16 14 4
16 15 6
17 1 8
17 4 5
17 5 4
17 7 7
17 8 3
17 9 9
17 11 2
17 15 7
18 1 7
18 3 2
18 4 1
18 5 4
18 6 9
18 8 9
18 10 6
18 12 7
18 14 9
18 15 1
18 16 1
18 17 6
19 0 7
19 3 2
19 5 6
19 6 3
19 9 6
19 10 8
19 13 1
19 15 8
19 16 2
19 17 5
19 18 4
20 2 4
20 3 7
20 6 4
20 9 9
20 10 3
20 15 2
20 16 8
20 17 6
20 18 8
21 4 6
21 5 8
21 7 3
21 8 7
21 13 2
21 15 9
21 18 4
22 1 2
22 2 9
22 3 7
22 4 2
22 6 3
22 7 7
22 8 9
22 11 2
22 13 7
22 14 4
22 15 8
22 17 3
22 18 1
22 19 6
23 0 8
23 1 1
23 2 4
23 3 4
23 4 1
23 5 6
23 6 5
23 7 2
23 8 6
23 9 1
23 12 3
23 13 6
23 14 7
23 16 1
23 17 7
23 20 6
24 0 1
24 1 1
24 2 7
24 4 8
24 5 9
24 6 7
24 7 5
24 8 7
24 11 5
24 14 4
24 15 9
24 16 4
24 19 9
24 22 5
25 0 3
25 2 9
25 4 4
25 8 8
25 10 7
25 12 6
25 14 7
25 15 6
25 16 5
25 22 2
25 24 9
26 1 6
26 2 7
26 3 2
26 4 1
26 8 5
26 11 9
26 15 4
26 18 9
26 20 9
26 22 7
26 23 6
27 0 6
27 1 5
27 6 4
27 9 5
27 10 4
27 11 3
27 12 4
27 13 6
27 15 9
27 16 4
27 17 3
27 18 5
27 20 6
27 21 3
27 25 8
28 0 7
28 4 7
28 5 9
28 8 8
28 9 5
28 10 8
28 11 9
28 12 6
28 13 9
28 14 1
28 15 2
28 17 6
28 22 4
28 24 8
29 1 2
29 2 4
29 8 2
29 9 8
29 10 1
29 11 4
29 12 2
29 13 3
29 15 5
29 16 8
29 17 7
29 22 1
29 23 4
29 24 7
29 26 1
30 3 5
30 4 1
30 9 8
30 10 8
30 11 1
30 12 8
30 13 5
30 15 7
30 19 7
30 20 8
30 21 3
30 22 6
30 25 1
30 27 1
30 28 8
30 29 3
31 0 4
31 1 9
31 2 2
31 6 4
31 10 7
31 13 3
31 17 8
31 18 3
31 20 7
31 21 3
31 22 5
31 23 6
31 24 8
31 25 4
31 26 2
31 30 6
32 1 6
32 2 3
32 3 9
32 4 1
32 5 3
32 6 6
32 10 8
32 11 8
32 16 6
32 17 8
32 18 4
32 19 8
32 23 3
32 25 3
32 31 3
33 1 6
33 5 8
33 6 8
33 7 4
33 9 7
33 12 6
33 13 5
33 14 9
33 15 5
33 16 8
33 17 4
33 18 5
33 20 3
33 21 3
33 22 3
33 23 8
33 24 8
33 30 3
33 32 9
34 1 6
34 2 8
34 3 5
34 5 6
34 6 5
34 7 4
34 8 6
34 9 9
34 15 9
34 19 3
34 23 3
34 27 6
34 28 4
34 29 2
34 31 1
34 32 9
34 33 7
35 1 4
35 2 1
35 5 6
35 12 5
35 14 6
35 17 5
35 23 9
35 24 4
35 25 1
35 28 2
35 29 6
35 31 6
35 33 8
35 34 3
36 0 1
36 1 9
36 5 8
36 7 7
36 8 7
36 10 3
36 11 2
36 13 9
36 14 7
36 15 8
36 16 6
36 18 8
36 20 4
36 21 2
36 23 8
36 24 7
36 25 1
36 26 4
36 27 3
36 31 1
36 32 9
36 33 6
36 34 4
37 2 9
37 3 6
37 7 4
37 8 6
37 12 1
37 15 1
37 16 1
37 19 5
37 20 2
37 21 2
37 22 9
37 23 9
37 26 7
37 27 6
37 30 7
37 32 3
37 33 3
37 34 2
37 35 5
37 36 5
38 0 1
38 2 5
38 3 7
38 4 7
38 6 9
38 10 3
38 13 2
38 16 9
38 17 2
38 18 5
38 19 8
38 22 9
38 23 2
38 24 6
38 26 1
38 28 8
38 29 9
38 30 3
38 32 6
38 36 6
38 37 3
39 0 4
39 1 4
39 2 1
39 3 7
39 4 6
39 5 9
39 6 8
39 7 5
39 13 9
39 15 8
39 19 2
39 24 6
39 29 8
39 30 2
39 32 1
39 33 1
39 35 6
40 5 7
40 6 8
40 8 4
40 12 1
40 13 7
40 15 5
40 16 2
40 21 7
40 23 8
40 24 2
40 25 5
40 26 2
40 27 9
40 28 5
40 32 8
40 35 3
40 38 9
40 39 1
41 3 1
41 4 3
41 5 5
41 7 6
41 12 3
41 13 4
41 15 7
41 19 3
41 21 9
41 22 9
41 26 9
41 27 6
41 28 3
41 29 3
41 32 1
41 37 7
41 38 7
41 40 9
42 1 6
42 3 1
42 4 7
42 5 3
42 6 7
42 7 8
42 10 7
42 12 4
42 14 7
42 22 3
42 26 3
42 29 2
42 30 7
42 31 2
42 33 8
42 35 8
42 36 5
42 37 6
42 38 5
43 0 7
43 1 1
43 10 2
43 11 5
43 15 1
43 17 8
43 18 6
43 19 9
43 20 9
43 21 2
43 23 7
43 24 5
43 25 2
43 26 1
43 27 2
43 28 3
43 29 1
43 31 8
43 34 1
43 35 7
43 38 7
43 40 4
43 41 1
44 0 9
44 1 8
44 4 3
44 5 6
44 7 4
44 9 3
44 11 9
44 12 6
44 13 8
44 16 2
44 20 1
44 22 3
44 24 4
44 26 2
44 27 9
44 29 1
44 37 1
44 39 3
44 41 6
44 42 2
45 0 8
45 2 9
45 3 6
45 4 8
45 6 9
45 7 3
45 8 4
45 13 7
45 20 5
45 22 3
45 28 2
45 29 9
45 30 3
45 34 5
45 37 5
45 38 7
45 42 4
45 44 3
46 1 7
46 2 2
46 4 9
46 5 2
46 7 8
46 9 8
46 12 5
46 14 8
46 15 2
46 16 8
46 17 8
46 18 3
46 19 4
46 21 8
46 22 6
46 29 2
46 30 7
46 33 6
46 34 8
46 40 2
46 43 9
46 44 7
46 45 2
47 0 3
47 1 4
47 2 7
47 3 1
47 6 2
47 7 9
47 10 8
47 11 9
47 13 8
47 14 2
47 15 3
47 19 3
47 21 7
47 27 6
47 28 9
47 31 7
47 32 1
47 36 1
47 41 1
47 42 3
47 43 4
47 45 5
48 1 5
48 2 7
48 4 7
48 5 5
48 12 4
48 13 9
48 16 7
48 17 6
48 25 1
48 26 5
48 28 8
48 32 6
48 34 6
48 35 6
48 40 1
48 41 5
48 42 4
48 44 7
48 45 7
49 0 5
49 2 8
49 4 8
49 5 4
49 7 9
49 14 7
49 15 9
49 18 7
49 20 9
49 21 3
49 23 4
49 24 9
49 26 2
49 27 3
49 29 6
49 30 9
49 31 2
49 33 4
49 35 6
49 44 6
49 46 1
49 48 6
50 2 7
50 5 2
50 6 5
50 7 3
50 8 1
50 9 6
50 10 1
50 13 6
50 14 4
50 17 5
50 18 4
50 19 5
50 21 8
50 24 1
50 25 3
50 27 7
50 28 1
50 30 6
50 34 6
50 37 9
50 38 5
50 40 4
50 41 7
50 44 8
51 2 1
51 3 5
51 4 2
51 5 3
51 8 1
51 10 2
51 11 5
51 12 1
51 13 7
51 14 5
51 16 5
51 17 9
51 19 1
51 20 9
51 24 4
51 25 3
51 26 6
51 28 9
51 29 5
51 33 6
51 34 1
51 35 4
51 36 5
51 39 2
51 43 4
51 44 6
51 46 5
51 48 4
51 49 9
52 1 2
52 2 5
52 3 6
52 7 8
52 11 5
52 12 6
52 15 8
52 16 6
52 17 6
52 18 4
52 21 5
52 23 8
52 25 1
52 26 8
52 27 4
52 28 3
52 30 1
52 32 1
52 34 3
52 35 8
52 37 2
52 38 9
52 39 4
52 45 8
52 46 7
52 47 1
52 49 7
52 50 7
52 51 6
53 1 4
53 2 8
53 3 6
53 8 9
53 9 6
53 11 1
53 12 4
53 13 8
53 16 5
53 17 5
53 19 3
53 20 2
53 23 7
53 24 1
53 28 4
53 35 1
53 36 5
53 37 4
53 40 3
53 42 3
53 43 6
53 45 1
53 46 6
53 50 8
53 51 3
53 52 6
54 0 7
54 1 2
54 2 3
54 3 1
54 4 9
54 11 6
54 14 9
54 17 2
54 19 4
54 21 1
54 22 3
54 24 4
54 27 7
54 29 1
54 33 5
54 36 6
54 38 5
54 39 7
54 40 2
54 44 5
54 47 5
54 52 9
55 0 6
55 1 8
55 2 4
55 3 1
55 5 8
55 6 4
55 7 5
55 8 7
55 17 1
55 20 5
55 21 5
55 25 6
55 26 2
55 29 3
55 30 1
55 33 7
55 35 9
55 36 3
55 37 4
55 39 4
55 40 4
55 41 4
55 47 3
55 49 7
55 50 5
55 52 3
55 54 3
56 1 6
56 3 4
56 5 6
56 7 4
56 8 4
56 9 7
56 13 3
56 14 6
56 15 2
56 17 8
56 18 9
56 20 7
56 21 4
56 22 1
56 23 9
56 25 2
56 28 2
56 29 7
56 33 6
56 34 9
56 36 7
56 37 6
56 46 3
56 47 9
56 50 6
56 53 8
56 54 3
56 55 9
57 2 4
57 5 4
57 6 4
57 8 8
57 19 3
57 21 9
57 22 2
57 23 8
57 24 8
57 26 8
57 27 5
57 28 2
57 32 6
57 33 8
57 34 9
57 36 7
57 40 7
57 41 4
57 42 3
57 43 9
57 44 9
57 45 9
57 46 2
57 49 4
57 54 1
57 55 1
58 0 9
58 2 5
58 6 8
58 7 5
58 10 9
58 11 2
58 19 2
58 20 7
58 21 3
58 22 9
58 23 3
58 24 1
58 25 7
58 26 3
58 30 4
58 31 6
58 35 4
58 41 9
58 42 6
58 43 7
58 44 7
58 46 8
58 47 7
58 49 3
58 50 7
58 51 5
58 52 8
58 54 5
58 55 1
59 2 7
59 4 5
59 5 6
59 7 4
59 8 8
59 11 7
59 15 7
59 16 1
59 18 6
59 20 7
59 21 1
59 23 8
59 24 7
59 27 9
59 28 3
59 29 3
59 32 8
59 33 7
59 34 8
59 35 4
59 36 5
59 37 1
59 40 9
59 41 2
59 45 4
59 47 6
59 49 9
59 51 3
59 52 8
59 53 9
59 54 6
59 58 3
60 1 3
60 2 7
60 4 2
60 6 4
60 7 2
60 11 9
60 14 4
60 15 8
60 16 8
60 17 7
60 18 9
60 19 7
60 20 9
60 21 3
60 27 6
60 28 8
60 32 5
60 33 6
60 35 1
60 36 8
60 40 1
60 41 4
60 42 9
60 44 6
60 47 1
60 56 3
60 58 2
60 59 6
61 1 2
61 3 3
61 6 1
61 8 4
61 11 9
61 13 5
61 14 7
61 17 8
61 18 8
61 19 6
61 21 2
61 22 9
61 24 2
61 26 5
61 29 3
61 31 5
61 32 1
61 33 7
61 34 2
61 35 2
61 37 8
61 38 8
61 39 3
61 40 7
61 41 7
61 42 9
61 44 5
61 47 9
61 48 8
61 49 8
61 50 3
61 52 4
61 54 9
61 56 3
61 57 1
62 0 5
62 1 2
62 3 7
62 8 6
62 11 1
62 14 2
62 19 2
62 22 4
62 23 9
62 28 7
62 29 4
62 30 3
62 33 8
62 34 8
62 39 8
62 41 6
62 42 8
62 43 7
62 45 8
62 47 6
62 48 4
62 50 7
62 55 2
62 57 4
62 58 4
62 59 2
62 60 7
63 0 6
63 1 8
63 2 1
63 3 4
63 5 7
63 6 2
63 8 7
63 12 1
63 14 6
63 15 7
63 19 8
63 20 7
63 21 7
63 23 9
63 24 4
63 25 5
63 26 5
63 27 6
63 29 5
63 34 9
63 35 4
63 36 1
63 37 6
63 42 1
63 43 8
63 45 2
63 46 3
63 47 8
63 49 6
63 52 9
63 54 5
63 55 5
63 57 5
63 59 3
63 61 4
64 3 9
64 4 5
64 5 7
64 8 2
64 13 7
64 14 9
64 16 6
64 19 1
64 27 4
64 28 6
64 29 4
64 30 9
64 31 4
64 33 4
64 35 8
64 40 1
64 43 5
64 45 6
64 46 4
64 48 7
64 49 2
64 54 2
64 57 7
64 60 2
64 61 6
64 62 2
64 63 4
65 1 3
65 2 7
65 3 7
65 7 4
65 8 1
65 10 9
65 14 7
65 16 5
65 19 6
65 22 7
65 24 9
65 25 3
65 30 9
65 33 9
65 34 4
65 35 1
65 36 2
65 37 5
65 38 8
65 39 4
65 41 2
65 43 4
65 44 8
65 48 8
65 49 3
65 50 7
65 51 8
65 54 2
65 55 5
65 57 3
65 58 1
65 59 6
65 60 4
65 61 1
65 62 4
66 0 5
66 1 2
66 2 3
66 4 8
66 5 9
66 8 7
66 10 1
66 17 1
66 18 1
66 21 9
66 23 9
66 25 8
66 28 5
66 29 4
66 30 8
66 31 1
66 33 5
66 34 2
66 35 8
66 38 9
66 39 8
66 42 9
66 44 3
66 47 8
66 50 3
66 53 5
66 56 7
66 57 6
66 59 5
66 60 6
66 64 6
66 65 5
67 1 2
67 4 6
67 8 9
67 11 4
67 12 7
67 16 8
67 18 6
67 22 5
67 23 4
67 25 7
67 26 4
67 28 3
67 30 7
67 32 9
67 35 1
67 38 2
67 41 2
67 42 6
67 43 5
67 45 9
67 47 3
67 48 2
67 49 1
67 50 4
67 52 9
67 59 1
67 61 8
67 63 2
67 66 1
68 0 7
68 3 6
68 4 5
68 5 7
68 7 5
68 11 1
68 13 6
68 17 5
68 19 2
68 20 9
68 21 1
68 23 9
68 26 9
68 27 5
68 29 1
68 31 2
68 33 4
68 34 7
68 37 2
68 41 1
68 43 3
68 45 1
68 50 6
68 51 7
68 53 4
68 58 7
68 59 2
68 60 6
68 61 1
68 62 7
68 64 5
68 67 8
69 0 7
69 1 8
69 2 1
69 3 2
69 6 1
69 14 9
69 15 4
69 17 1
69 18 8
69 19 7
69 20 1
69 22 1
69 24 5
69 25 5
69 28 6
69 30 7
69 32 8
69 33 4
69 34 3
69 37 8
69 40 8
69 43 1
69 44 8
69 45 2
69 47 8
69 48 2
69 52 9
69 53 3
69 54 8
69 55 3
69 57 3
69 58 5
69 59 7
69 60 8
69 63 2
69 68 1
